; ./hopv/./lia/termination/CE-1CFA02_000.smt2
(set-logic HORN)

(declare-fun |fail$unknown:38| ( Int ) Bool)
(declare-fun |app_1038$unknown:8| ( Int Int Int Int Int Int Int Int ) Bool)
(declare-fun |omega_1032$unknown:46| ( Int Int Int ) Bool)
(declare-fun |f_1034$unknown:32| ( Int Int Int Int Int Int Int Int Int Int Int Int Int ) Bool)
(declare-fun |app_1038$unknown:12| ( Int Int Int Int Int Int Int Int ) Bool)
(declare-fun |f_1034$unknown:36| ( Int Int Int Int Int Int Int Int Int Int Int Int Int ) Bool)

(assert
  (forall ( (A Int) (B Int) (C Int) (D Int) (E Int) (F Int) (G Int) (H Int) ) 
    (=>
      (and
        (|app_1038$unknown:12| H G F E D C B A)
        true
      )
      (|app_1038$unknown:8| H G F E D C B A)
    )
  )
)
(assert
  (forall ( (A Int) (B Int) (C Int) (D Int) (E Int) (F Int) (G Int) (H Int) (I Int) (J Int) (K Int) (L Int) (M Int) (N Int) (O Int) (P Int) (Q Int) (R Int) (S Int) (T Int) (U Int) (V Int) (W Int) (X Int) (Y Int) (Z Int) (A1 Int) (B1 Int) (C1 Int) (D1 Int) (E1 Int) (F1 Int) (G1 Int) (H1 Int) (I1 Int) (J1 Int) (K1 Int) (L1 Int) (M1 Int) (N1 Int) (O1 Int) (P1 Int) ) 
    (=>
      (and
        (|app_1038$unknown:8| A B M1 K P1 F O1 N1)
        (and (= E1 0)
     (= D1 0)
     (= C1 0)
     (= B1 0)
     (= A1 0)
     (= Z 0)
     (= Y 0)
     (= X 0)
     (= W 0)
     (= V 1)
     (= U 0)
     (= T 0)
     (= S 0)
     (= R 0)
     (= Q 0)
     (= P 0)
     (= O 0)
     (= N 0)
     (= M 0)
     (= L 0)
     (= K 0)
     (= J 0)
     (= I 0)
     (= H 0)
     (= G 0)
     (= F 0)
     (= E 0)
     (= D 0)
     (= C 0)
     (= H1 0)
     (= G1 0)
     (= P1 0)
     (= O1 0)
     (= N1 0)
     (= L1 0)
     (= K1 0)
     (= J1 0)
     (= I1 0)
     (= F1 0))
      )
      (|f_1034$unknown:36| A B M1 L1 K1 G J1 I1 H1 G1 I F1 E1)
    )
  )
)
(assert
  (forall ( (A Int) (B Int) (C Int) (D Int) (E Int) (F Int) (G Int) (H Int) (I Int) (J Int) (K Int) (L Int) (M Int) (N Int) (O Int) (P Int) (Q Int) (R Int) (S Int) (T Int) (U Int) (V Int) (W Int) (X Int) (Y Int) (Z Int) ) 
    (=>
      (and
        (|app_1038$unknown:8| A B Z Y X H W V)
        (and (= O 0)
     (= N 0)
     (= M 0)
     (= L 0)
     (= K 0)
     (= J 0)
     (= I 0)
     (= H 0)
     (= G 0)
     (= F 0)
     (= E 0)
     (= D 0)
     (= C 0)
     (= R 0)
     (= Q 0)
     (= Y 0)
     (= X 0)
     (= W 0)
     (= V 0)
     (= U 1)
     (= T 0)
     (= S 0)
     (= P 0))
      )
      (|omega_1032$unknown:46| A B Z)
    )
  )
)
(assert
  (forall ( (A Int) (B Int) (C Int) (D Int) (E Int) (F Int) (G Int) (H Int) (I Int) (J Int) (K Int) (L Int) (M Int) ) 
    (=>
      (and
        (|f_1034$unknown:36| M L K J I H G F E D C B A)
        true
      )
      (|f_1034$unknown:32| M L K J I H G F E D C B A)
    )
  )
)
(assert
  (forall ( (A Int) (B Int) (C Int) (D Int) (E Int) (F Int) (G Int) (H Int) (I Int) (J Int) (K Int) (L Int) (M Int) (N Int) (O Int) (P Int) (Q Int) (R Int) (S Int) (T Int) (U Int) (V Int) (W Int) (X Int) (Y Int) (Z Int) (A1 Int) (B1 Int) (C1 Int) (D1 Int) (E1 Int) (F1 Int) (G1 Int) (H1 Int) (I1 Int) (J1 Int) (K1 Int) (L1 Int) (M1 Int) (N1 Int) (O1 Int) (P1 Int) (Q1 Int) (R1 Int) (S1 Int) (T1 Int) ) 
    (=>
      (and
        (|f_1034$unknown:32| B A P X W C V U T S E R Q)
        (and (= I1 0)
     (= H1 0)
     (= G1 0)
     (= F1 0)
     (= E1 0)
     (= D1 0)
     (= C1 0)
     (= B1 0)
     (= A1 1)
     (= Z 0)
     (= Y 0)
     (= X 0)
     (= W 0)
     (= V 0)
     (= U 0)
     (= T 0)
     (= S 0)
     (= R 0)
     (= Q 0)
     (= O 0)
     (= N 0)
     (= M 0)
     (= L 0)
     (= K 0)
     (= J 0)
     (= I 0)
     (= H 0)
     (= G 0)
     (= F 0)
     (= E 0)
     (= D 0)
     (= C 0)
     (= L1 0)
     (= K1 0)
     (= T1 0)
     (= S1 0)
     (= R1 0)
     (= Q1 0)
     (= P1 0)
     (= O1 0)
     (= N1 0)
     (= M1 0)
     (= J1 0))
      )
      (|app_1038$unknown:12| B A P O N D M L)
    )
  )
)
(assert
  (forall ( (A Int) (B Int) (C Int) (D Int) (E Int) (F Int) (G Int) (H Int) (I Int) (J Int) (K Int) (L Int) (M Int) (N Int) (O Int) (P Int) (Q Int) (R Int) (S Int) (T Int) (U Int) (V Int) (W Int) (X Int) (Y Int) (Z Int) (A1 Int) (B1 Int) (C1 Int) (D1 Int) (E1 Int) (F1 Int) (G1 Int) (H1 Int) (I1 Int) (J1 Int) (K1 Int) (L1 Int) ) 
    (=>
      (and
        (|f_1034$unknown:32| B A D1 L1 K1 G J1 I1 H1 G1 I F1 E1)
        (and (= A1 0)
     (= Z 0)
     (= Y 0)
     (= X 0)
     (= W 0)
     (= V 0)
     (= U 1)
     (= T 0)
     (= S 0)
     (= R 0)
     (= Q 0)
     (= P 0)
     (= O 0)
     (= N 0)
     (= M 0)
     (= L 0)
     (= K 0)
     (= J 0)
     (= I 0)
     (= H 0)
     (= G 0)
     (= F 0)
     (= E 0)
     (= D 0)
     (= C 0)
     (= C1 0)
     (= L1 0)
     (= K1 0)
     (= J1 0)
     (= I1 0)
     (= H1 0)
     (= G1 0)
     (= F1 0)
     (= E1 0)
     (= B1 0))
      )
      (|app_1038$unknown:12| B A D1 C1 B1 H A1 Z)
    )
  )
)
(assert
  (forall ( (A Int) (B Int) (C Int) (D Int) ) 
    (=>
      (and
        (|omega_1032$unknown:46| C B A)
        (and (= D 1) (not (= 0 A)))
      )
      (|fail$unknown:38| D)
    )
  )
)
(assert
  (forall ( (A Int) (B Int) (C Int) (D Int) (E Int) (F Int) (G Int) (H Int) (I Int) (J Int) (K Int) (L Int) (M Int) (N Int) (O Int) (P Int) (Q Int) (R Int) (S Int) (T Int) (U Int) (V Int) (W Int) (X Int) (Y Int) (Z Int) (A1 Int) (B1 Int) (C1 Int) (D1 Int) (E1 Int) (F1 Int) (G1 Int) (H1 Int) (I1 Int) (J1 Int) (K1 Int) (L1 Int) (M1 Int) (N1 Int) (O1 Int) (P1 Int) (Q1 Int) ) 
    (=>
      (and
        (and (= F1 0)
     (= E1 0)
     (= D1 0)
     (= C1 0)
     (= B1 0)
     (= A1 0)
     (= Z 0)
     (= Y 0)
     (= X 1)
     (= W 0)
     (= V 0)
     (= U 0)
     (= T 0)
     (= S 0)
     (= R 0)
     (= Q 0)
     (= P 0)
     (= O 0)
     (= N 0)
     (= M 0)
     (= L 0)
     (= K 0)
     (= J 0)
     (= I 0)
     (= H 0)
     (= G 0)
     (= F 0)
     (= E 0)
     (= D 0)
     (= C 0)
     (= B 0)
     (= A 0)
     (= I1 0)
     (= H1 0)
     (= Q1 0)
     (= P1 0)
     (= O1 0)
     (= N1 0)
     (= M1 0)
     (= L1 0)
     (= K1 0)
     (= J1 0)
     (= G1 0))
      )
      (|f_1034$unknown:36| X W V U T A S R Q P C O N)
    )
  )
)
(assert
  (forall ( (A Int) ) 
    (=>
      (and
        (|fail$unknown:38| A)
        true
      )
      false
    )
  )
)

(check-sat)
(exit)
